(set-info :smt-lib-version 2.6)
(set-logic LRA)
(set-info :source |
   Monniaux, David; Quantifier Elimination by Lazy Model Enumeration, CAV 2010
|)
(set-info :category "random")
; ./Mjollnir_examples/B6/formula_067.m
(set-info :status unsat)
(assert
 (forall ((|v17:0| Real) )(forall ((|v16:1| Real) )(forall ((|v15:2| Real) )(forall ((|v14:3| Real) )(forall ((|v13:4| Real) )(forall ((|v12:5| Real) )(exists ((|v11:6| Real) )(exists ((|v10:7| Real) )(exists ((|v9:8| Real) )(exists ((|v8:9| Real) )(exists ((|v7:10| Real) )(exists ((|v6:11| Real) )(forall ((|v5:12| Real) )(forall ((|v4:13| Real) )(forall ((|v3:14| Real) )(forall ((|v2:15| Real) )(forall ((|v1:16| Real) )(forall ((|v0:17| Real) )(let ((?x79 15))
(let ((?x290 6))
(let ((?x521 (* ?x290 |v16:1|)))
(let ((?x47 13))
(let ((?x645 (* ?x47 |v5:12|)))
(let ((?x32 (- 17)))
(let ((?x865 (* ?x32 |v7:10|)))
(let ((?x137 (- 6)))
(let ((?x869 (* ?x137 |v13:4|)))
(let ((?x1378 (+ (+ (+ (* (- 19) |v9:8|) (* 4 |v13:4|)) ?x869) (* (- 7) |v2:15|))))
(let ((?x51 4))
(let ((?x113 (- 10)))
(let ((?x235 (* ?x113 |v14:3|)))
(let ((?x192 12))
(let ((?x193 (* ?x192 |v8:9|)))
(let ((?x198 (- 9)))
(let ((?x199 (* ?x198 |v16:1|)))
(let ((?x1368 (+ (+ (+ (* (- 14) |v2:15|) (* (- 11) |v14:3|)) ?x199) (* 8 |v16:1|))))
(let ((?x14 (- 15)))
(let ((?x772 (* ?x47 |v14:3|)))
(let ((?x386 (* ?x192 |v9:8|)))
(let ((?x36 11))
(let ((?x993 (* ?x36 |v6:11|)))
(let ((?x216 9))
(let ((?x574 (* ?x216 |v7:10|)))
(let ((?x1360 (+ (+ (+ ?x193 (* (- 7) |v4:13|)) (* (- 14) |v8:9|)) ?x574)))
(let (($x1374 (and (<= (+ (+ (+ ?x1360 ?x993) ?x386) ?x772) ?x14) (<= (+ (+ (+ ?x1368 (* ?x216 |v10:7|)) ?x193) ?x235) ?x51))))
(let ((?x24 20))
(let ((?x1347 (+ (+ (+ (* ?x51 |v16:1|) (* (- 16) |v14:3|)) (* ?x47 |v0:17|)) (* 0 |v7:10|))))
(let ((?x1353 (+ (+ (+ ?x1347 (* (- 12) |v13:4|)) (* ?x216 |v9:8|)) (* ?x192 |v3:14|))))
(let ((?x127 5))
(let ((?x1333 (+ (+ (* (- 2) |v14:3|) (* (- 1) |v2:15|)) (* ?x24 |v5:12|))))
(let ((?x1339 (+ (+ (+ ?x1333 (* (- 11) |v15:2|)) (* ?x192 |v5:12|)) (* (- 16) |v6:11|))))
(let ((?x107 17))
(let ((?x242 (- 16)))
(let ((?x1070 (* ?x242 |v2:15|)))
(let ((?x294 (* ?x113 |v10:7|)))
(let ((?x48 (* ?x47 |v17:0|)))
(let ((?x1193 (* ?x107 |v9:8|)))
(let ((?x1325 (+ (+ (+ (* (- 3) |v14:3|) (* (- 3) |v2:15|)) ?x1193) (* ?x107 |v1:16|))))
(let ((?x220 (- 19)))
(let ((?x221 (* ?x220 |v6:11|)))
(let ((?x867 (* ?x113 |v16:1|)))
(let ((?x10 (- 12)))
(let ((?x965 (* ?x10 |v14:3|)))
(let ((?x1317 (+ (+ (+ (* 19 |v3:14|) (* 18 |v12:5|)) ?x965) ?x221)))
(let (($x1330 (or (<= (+ (+ (+ ?x1317 ?x867) ?x221) |v2:15|) ?x14) (<= (+ (+ (+ ?x1325 ?x48) ?x294) ?x1070) ?x107))))
(let (($x1356 (and $x1330 (or (<= (+ ?x1339 (* 0 |v10:7|)) ?x127) (<= ?x1353 ?x24)))))
(let ((?x213 (- 5)))
(let ((?x586 (* ?x14 |v4:13|)))
(let ((?x798 (* ?x24 |v12:5|)))
(let ((?x59 (- 4)))
(let ((?x60 (* ?x59 |v15:2|)))
(let ((?x1305 (+ (+ (+ (* ?x32 |v11:6|) (* 3 |v6:11|)) ?x60) (* 0 |v2:15|))))
(let ((?x101 16))
(let ((?x150 (- 3)))
(let ((?x730 (* ?x150 |v1:16|)))
(let ((?x86 (- 11)))
(let ((?x87 (* ?x86 |v5:12|)))
(let ((?x176 (- 13)))
(let ((?x757 (* ?x176 |v17:0|)))
(let ((?x1295 (+ (+ (+ (+ (* (- 1) |v5:12|) (* ?x290 |v9:8|)) ?x757) ?x87) |v17:0|)))
(let (($x1311 (or (<= (+ (+ ?x1295 ?x730) (* ?x101 |v3:14|)) ?x101) (<= (+ (+ (+ ?x1305 ?x798) ?x586) (* ?x176 |v3:14|)) ?x213))))
(let ((?x117 19))
(let ((?x276 (* ?x216 |v2:15|)))
(let ((?x19 8))
(let ((?x1159 (* ?x19 |v2:15|)))
(let ((?x28 (- 1)))
(let ((?x1286 (* ?x28 |v5:12|)))
(let ((?x1285 (+ (+ (+ (* ?x36 |v1:16|) (* ?x32 |v5:12|)) (* ?x113 |v7:10|)) (* ?x36 |v8:9|))))
(let ((?x120 (- 14)))
(let ((?x451 (* ?x120 |v14:3|)))
(let ((?x1273 (+ (+ (+ (* ?x192 |v14:3|) (* 10 |v11:6|)) (* ?x24 |v6:11|)) (* ?x137 |v17:0|))))
(let (($x1291 (and (<= (+ (+ (+ ?x1273 (* ?x47 |v11:6|)) ?x451) (* ?x19 |v5:12|)) ?x79) (<= (+ (+ (+ ?x1285 ?x1286) ?x1159) ?x276) ?x117))))
(let ((?x71 18))
(let ((?x929 (* ?x51 |v17:0|)))
(let ((?x1259 (+ (+ (+ (* ?x176 |v12:5|) (* ?x127 |v9:8|)) (* ?x137 |v14:3|)) (* ?x220 |v4:13|))))
(let ((?x434 (* ?x79 |v11:6|)))
(let ((?x1251 (+ (+ (+ (* ?x86 |v11:6|) (* ?x137 |v14:3|)) ?x221) (* (- 20) |v15:2|))))
(let ((?x1255 (+ (+ (+ ?x1251 (* 3 |v9:8|)) ?x434) (* (- 7) |v13:4|))))
(let (($x1266 (and (<= ?x1255 ?x216) (<= (+ (+ (+ ?x1259 (* ?x86 |v12:5|)) (* ?x86 |v0:17|)) ?x929) ?x71))))
(let ((?x11 (* ?x10 |v2:15|)))
(let ((?x1241 (+ (+ (+ (* ?x216 |v11:6|) (* 0 |v5:12|)) (* ?x71 |v12:5|)) (* ?x242 |v8:9|))))
(let (($x1245 (<= (+ (+ (+ ?x1241 ?x11) (* (- 20) |v5:12|)) (* ?x213 |v11:6|)) ?x150)))
(let ((?x474 (* ?x150 |v5:12|)))
(let ((?x923 (* ?x10 |v9:8|)))
(let ((?x1233 (+ (+ (+ (* ?x36 |v15:2|) (* ?x213 |v7:10|)) (* ?x216 |v4:13|)) (* (- 18) |v5:12|))))
(let (($x1267 (and (and (<= (+ (+ (+ ?x1233 (* ?x213 |v9:8|)) ?x923) ?x474) ?x216) $x1245) $x1266)))
(let (($x1385 (or (and $x1267 (and $x1291 $x1311)) (and $x1356 (or $x1374 (<= (+ (+ (+ ?x1378 ?x865) ?x645) ?x521) ?x79))))))
(let ((?x1220 (* ?x150 |v2:15|)))
(let ((?x1218 (+ (+ (+ (* ?x113 |v6:11|) (* (- 18) |v3:14|)) (* ?x10 |v4:13|)) (* (- 7) |v11:6|))))
(let ((?x68 (- 7)))
(let ((?x633 (* ?x216 |v15:2|)))
(let ((?x1208 (+ (+ (+ (* ?x242 |v16:1|) (* ?x117 |v12:5|)) (* ?x36 |v10:7|)) (* 10 |v4:13|))))
(let (($x1213 (<= (+ (+ (+ ?x1208 ?x633) (* ?x47 |v9:8|)) (* 10 |v0:17|)) ?x68)))
(let (($x1224 (or $x1213 (<= (+ (+ (+ ?x1218 (* (- 18) |v13:4|)) ?x1220) ?x386) ?x36))))
(let ((?x479 2))
(let ((?x184 (* ?x113 |v13:4|)))
(let ((?x1197 (+ (+ (+ (* ?x68 |v7:10|) ?x1193) (* ?x242 |v8:9|)) (* 14 |v11:6|))))
(let ((?x29 (* ?x28 |v4:13|)))
(let ((?x1186 (+ (+ (+ (+ (* ?x24 |v11:6|) (* 3 |v11:6|)) ?x923) ?x29) (* (- 18) |v9:8|))))
(let (($x1203 (and (<= (+ (+ ?x1186 (* ?x150 |v7:10|)) (* ?x79 |v14:3|)) ?x59) (<= (+ (+ (+ ?x1197 ?x184) (* ?x59 |v0:17|)) ?x633) ?x479))))
(let ((?x132 10))
(let ((?x133 (* ?x132 |v17:0|)))
(let ((?x921 (* ?x120 |v13:4|)))
(let ((?x457 (* ?x113 |v3:14|)))
(let ((?x1177 (+ (+ (+ (+ (+ (* ?x216 |v14:3|) |v5:12|) (* ?x47 |v8:9|)) ?x921) ?x457) ?x921)))
(let ((?x467 (* ?x68 |v4:13|)))
(let ((?x163 7))
(let ((?x449 (* ?x163 |v8:9|)))
(let ((?x1168 (+ (+ (+ (* ?x19 |v12:5|) (* ?x24 |v0:17|)) (* ?x479 |v2:15|)) (* ?x127 |v2:15|))))
(let (($x1180 (or (<= (+ (+ (+ ?x1168 ?x449) (* ?x120 |v3:14|)) ?x467) ?x220) (<= (+ ?x1177 ?x133) ?x51))))
(let ((?x1156 (+ (+ (+ (* ?x32 |v10:7|) (* ?x220 |v16:1|)) (* ?x71 |v12:5|)) (* ?x86 |v13:4|))))
(let (($x1162 (<= (+ (+ (+ ?x1156 (* ?x113 |v0:17|)) ?x1159) (* 14 |v10:7|)) ?x10)))
(let ((?x323 (* ?x86 |v16:1|)))
(let ((?x147 0))
(let ((?x152 (* ?x147 |v15:2|)))
(let ((?x1148 (+ (+ (+ (+ (* ?x120 |v1:16|) (* ?x28 |v11:6|)) (* ?x198 |v15:2|)) ?x152) (* ?x176 |v8:9|))))
(let (($x1226 (or (and (and (<= (+ (+ ?x1148 ?x323) (* ?x150 |v4:13|)) ?x192) $x1162) $x1180) (or $x1203 $x1224))))
(let ((?x337 (* ?x68 |v10:7|)))
(let ((?x1133 (+ (+ (+ (* ?x216 |v5:12|) (* ?x68 |v13:4|)) (* ?x242 |v1:16|)) (* ?x107 |v0:17|))))
(let ((?x1122 (+ (+ (+ (+ (* ?x32 |v15:2|) (* ?x220 |v4:13|)) (* ?x51 |v13:4|)) ?x730) ?x633)))
(let (($x1139 (and (<= (+ (+ ?x1122 (* ?x79 |v2:15|)) (* ?x10 |v6:11|)) ?x107) (<= (+ (+ (+ ?x1133 (* ?x150 |v4:13|)) ?x337) (* ?x137 |v15:2|)) ?x19))))
(let ((?x33 (* ?x32 |v2:15|)))
(let ((?x55 (- 8)))
(let ((?x82 (* ?x55 |v10:7|)))
(let ((?x1110 (+ (+ (+ (+ (* ?x127 |v12:5|) (* ?x198 |v4:13|)) (* ?x51 |v2:15|)) ?x82) ?x33)))
(let ((?x74 (* ?x51 |v10:7|)))
(let ((?x1102 (* ?x28 |v2:15|)))
(let ((?x1100 (+ (+ (+ (* ?x127 |v17:0|) ?x467) (* (- 2) |v12:5|)) (* ?x163 |v14:3|))))
(let (($x1116 (or (<= (+ (+ (+ ?x1100 (* ?x32 |v14:3|)) ?x1102) ?x74) ?x113) (<= (+ (+ ?x1110 (* ?x216 |v3:14|)) (* ?x176 |v14:3|)) ?x101))))
(let ((?x108 (* ?x107 |v4:13|)))
(let ((?x1087 (+ (+ (+ (* ?x242 |v12:5|) (* 3 |v7:10|)) (* ?x127 |v4:13|)) (* ?x79 |v9:8|))))
(let ((?x863 (* ?x51 |v16:1|)))
(let ((?x1077 (+ (+ (+ (* ?x10 |v16:1|) (* ?x71 |v14:3|)) (* ?x101 |v16:1|)) (* ?x59 |v9:8|))))
(let (($x1094 (or (<= (+ (+ (+ ?x1077 (* ?x176 |v15:2|)) (* ?x117 |v10:7|)) ?x863) ?x192) (<= (+ (+ (+ ?x1087 (* ?x147 |v13:4|)) ?x108) (* ?x192 |v17:0|)) ?x79))))
(let ((?x93 14))
(let ((?x1067 (+ (+ (+ (+ ?x929 (* ?x150 |v10:7|)) (* ?x14 |v1:16|)) (* ?x51 |v3:14|)) (* ?x147 |v11:6|))))
(let ((?x300 (* ?x150 |v14:3|)))
(let ((?x1056 (+ (+ (+ (* ?x242 |v16:1|) (* ?x198 |v6:11|)) (* ?x479 |v1:16|)) (* ?x86 |v13:4|))))
(let (($x1061 (<= (+ (+ (+ ?x1056 (* ?x28 |v7:10|)) (* 3 |v8:9|)) ?x300) 1)))
(let (($x1141 (or (and (and $x1061 (<= (+ (+ ?x1067 (* ?x14 |v10:7|)) ?x1070) ?x93)) $x1094) (and $x1116 $x1139))))
(let ((?x1038 (+ (+ (+ (* ?x220 |v2:15|) (* ?x192 |v14:3|)) (* ?x220 |v1:16|)) (* ?x19 |v6:11|))))
(let (($x1045 (<= (+ (+ (+ ?x1038 (* ?x147 |v4:13|)) (* ?x147 |v0:17|)) (* ?x71 |v10:7|)) ?x192)))
(let ((?x262 (* ?x14 |v16:1|)))
(let ((?x1027 (+ (+ (+ (* ?x479 |v4:13|) (* ?x55 |v0:17|)) (* ?x10 |v0:17|)) (* ?x137 |v8:9|))))
(let (($x1046 (and (<= (+ (+ (+ ?x1027 (* ?x47 |v12:5|)) (* ?x479 |v7:10|)) ?x262) ?x137) $x1045)))
(let ((?x1018 (+ (+ (+ (+ ?x11 ?x929) (* ?x86 |v7:10|)) (* ?x28 |v8:9|)) (* ?x101 |v11:6|))))
(let ((?x1007 (+ (+ (+ (* ?x47 |v3:14|) (* ?x113 |v5:12|)) (* ?x290 |v8:9|)) (* ?x290 |v12:5|))))
(let ((?x1011 (+ (+ (+ ?x1007 (* ?x59 |v16:1|)) (* (- 18) |v7:10|)) (* (- 2) |v6:11|))))
(let (($x1024 (or (<= ?x1011 ?x216) (<= (+ (+ ?x1018 (* ?x127 |v17:0|)) (* ?x28 |v16:1|)) ?x86))))
(let ((?x997 (+ (+ (+ (+ (* ?x220 |v10:7|) (* ?x127 |v1:16|)) ?x993) (* ?x71 |v14:3|)) (* ?x71 |v11:6|))))
(let ((?x394 (* ?x10 |v11:6|)))
(let ((?x985 (+ (+ (+ (* ?x101 |v14:3|) (* 3 |v2:15|)) (* ?x290 |v5:12|)) (* ?x117 |v1:16|))))
(let (($x1002 (or (<= (+ (+ (+ ?x985 ?x394) (* (- 18) |v4:13|)) ?x449) ?x176) (<= (+ (+ ?x997 (* ?x176 |v7:10|)) (* ?x55 |v9:8|)) ?x101))))
(let ((?x114 (* ?x113 |v2:15|)))
(let ((?x972 (+ (+ (+ (* ?x71 |v11:6|) (* (- 20) |v1:16|)) (* ?x127 |v14:3|)) |v15:2|)))
(let ((?x962 (+ (+ (+ (+ (* ?x132 |v6:11|) (* ?x10 |v7:10|)) ?x457) ?x869) (* ?x107 |v15:2|))))
(let (($x979 (and (<= (+ (+ ?x962 (* (- 20) |v1:16|)) ?x965) ?x150) (<= (+ (+ (+ ?x972 (* ?x32 |v6:11|)) ?x114) (* ?x68 |v3:14|)) ?x132))))
(let ((?x946 (+ (+ (+ (* ?x120 |v7:10|) (* ?x59 |v14:3|)) (* ?x220 |v12:5|)) (* ?x101 |v15:2|))))
(let (($x952 (<= (+ (+ (+ ?x946 (* ?x36 |v16:1|)) (* ?x32 |v10:7|)) (* ?x120 |v10:7|)) ?x47)))
(let ((?x935 (+ (+ (+ (+ ?x929 (* ?x93 |v1:16|)) (* ?x10 |v12:5|)) |v14:3|) (* ?x55 |v8:9|))))
(let ((?x349 (* ?x55 |v5:12|)))
(let ((?x920 (+ (+ (+ (* ?x28 |v3:14|) (* (- 2) |v7:10|)) (* ?x242 |v0:17|)) ?x349)))
(let ((?x302 (* ?x127 |v16:1|)))
(let ((?x223 (* ?x19 |v7:10|)))
(let ((?x913 (+ (+ (+ (+ (+ (* ?x127 |v11:6|) (* ?x147 |v17:0|)) ?x114) |v0:17|) ?x223) (* ?x59 |v12:5|))))
(let (($x928 (and (<= (+ ?x913 ?x302) ?x107) (<= (+ (+ (+ ?x920 ?x921) ?x923) (* ?x132 |v5:12|)) ?x101))))
(let (($x954 (and $x928 (or (<= (+ (+ ?x935 (* ?x51 |v9:8|)) (* ?x176 |v11:6|)) ?x147) $x952))))
(let ((?x901 (+ (+ (+ (+ (* ?x213 |v12:5|) (* ?x24 |v11:6|)) (* ?x28 |v17:0|)) ?x262) (* ?x176 |v2:15|))))
(let ((?x888 (+ (+ (+ (* (- 20) |v7:10|) (* ?x68 |v12:5|)) (* ?x163 |v13:4|)) (* ?x117 |v13:4|))))
(let (($x905 (or (<= (+ (+ (+ ?x888 (* ?x47 |v10:7|)) (* ?x216 |v4:13|)) ?x276) ?x19) (<= (+ (+ ?x901 ?x323) |v8:9|) ?x176))))
(let ((?x170 (- 2)))
(let ((?x877 (+ (+ (+ (+ (* ?x290 |v12:5|) ?x467) (* ?x113 |v1:16|)) ?x152) (* ?x163 |v6:11|))))
(let ((?x866 (+ (+ (+ (+ (* ?x32 |v16:1|) (* ?x36 |v9:8|)) (* ?x479 |v4:13|)) ?x863) ?x865)))
(let (($x883 (or (<= (+ (+ ?x866 ?x867) ?x869) ?x170) (<= (+ (+ ?x877 (* (- 18) |v12:5|)) (* ?x24 |v10:7|)) ?x170))))
(let ((?x201 (* ?x163 |v7:10|)))
(let ((?x849 (+ (+ (+ (* ?x120 |v11:6|) (* ?x24 |v2:15|)) (* ?x79 |v5:12|)) (* ?x101 |v12:5|))))
(let ((?x247 (* ?x86 |v14:3|)))
(let ((?x314 (* ?x32 |v0:17|)))
(let ((?x841 (+ (+ (+ (* ?x24 |v1:16|) (* ?x220 |v3:14|)) (* 3 |v17:0|)) (* ?x163 |v15:2|))))
(let (($x855 (or (<= (+ (+ (+ ?x841 ?x314) ?x247) (* ?x220 |v3:14|)) ?x14) (<= (+ (+ (+ ?x849 (* ?x132 |v12:5|)) (* ?x198 |v13:4|)) ?x201) ?x14))))
(let ((?x157 (- 18)))
(let ((?x833 (+ (+ (+ (+ (* ?x127 |v9:8|) (* ?x176 |v6:11|)) |v10:7|) (* ?x127 |v8:9|)) (* ?x479 |v13:4|))))
(let ((?x181 (* ?x59 |v10:7|)))
(let ((?x823 (+ (+ (+ (+ (* ?x170 |v11:6|) (* ?x59 |v6:11|)) (* ?x479 |v13:4|)) ?x181) (* ?x176 |v9:8|))))
(let (($x837 (or (<= (+ (+ ?x823 (* ?x68 |v15:2|)) (* ?x55 |v4:13|)) ?x19) (<= (+ (+ ?x833 ?x133) ?x11) ?x157))))
(let ((?x280 (* ?x24 |v7:10|)))
(let ((?x810 (+ (+ (+ (* (- 20) |v2:15|) (* ?x55 |v6:11|)) (* ?x137 |v7:10|)) (* ?x198 |v14:3|))))
(let ((?x801 (+ (+ (+ (+ (* ?x127 |v10:7|) ?x337) (* ?x14 |v3:14|)) ?x798) (* ?x113 |v11:6|))))
(let (($x816 (or (<= (+ (+ ?x801 (* ?x127 |v6:11|)) (* ?x127 |v5:12|)) ?x32) (<= (+ (+ (+ ?x810 (* ?x107 |v2:15|)) ?x280) ?x394) ?x150))))
(let ((?x788 (+ (+ (+ (+ (* ?x479 |v8:9|) |v0:17|) ?x82) (* ?x107 |v13:4|)) (* ?x216 |v17:0|))))
(let ((?x775 (+ (+ (+ (* 3 |v12:5|) (* ?x117 |v12:5|)) ?x772) (* ?x213 |v2:15|))))
(let (($x782 (<= (+ (+ (+ ?x775 (* ?x132 |v0:17|)) (* ?x86 |v11:6|)) (* ?x117 |v2:15|)) ?x24)))
(let (($x817 (or (and $x782 (<= (+ (+ ?x788 (* ?x93 |v5:12|)) (* ?x216 |v11:6|)) ?x198)) $x816)))
(let ((?x763 (+ (+ (+ (+ (* ?x107 |v13:4|) ?x757) (* ?x192 |v13:4|)) ?x434) (* ?x55 |v2:15|))))
(let ((?x748 (+ (+ (+ (* ?x176 |v6:11|) (* ?x32 |v15:2|)) (* ?x150 |v3:14|)) (* ?x213 |v0:17|))))
(let ((?x754 (+ (+ (+ ?x748 (* ?x213 |v4:13|)) (* ?x101 |v13:4|)) (* 3 |v4:13|))))
(let ((?x736 (+ (+ (+ (+ ?x730 (* ?x132 |v14:3|)) (* ?x113 |v4:13|)) (* ?x51 |v12:5|)) (* ?x36 |v11:6|))))
(let ((?x723 (* ?x120 |v2:15|)))
(let ((?x362 (* ?x10 |v16:1|)))
(let ((?x724 (+ (+ (+ (+ (* ?x59 |v9:8|) (* ?x216 |v14:3|)) (* ?x28 |v3:14|)) ?x362) ?x723)))
(let (($x742 (or (<= (+ (+ ?x724 (* ?x242 |v13:4|)) (* ?x32 |v3:14|)) ?x198) (<= (+ (+ ?x736 (* ?x47 |v12:5|)) (* ?x213 |v11:6|)) ?x127))))
(let (($x769 (or $x742 (and (<= ?x754 ?x132) (<= (+ (+ ?x763 (* ?x242 |v9:8|)) ?x302) ?x36)))))
(let ((?x709 (+ (+ (+ (+ ?x33 (* ?x55 |v1:16|)) (* ?x176 |v0:17|)) (* ?x19 |v12:5|)) (* 3 |v12:5|))))
(let ((?x695 (+ (+ (+ (* ?x213 |v0:17|) (* ?x170 |v17:0|)) (* ?x28 |v15:2|)) (* ?x117 |v7:10|))))
(let ((?x701 (+ (+ (+ ?x695 (* ?x132 |v2:15|)) (* 3 |v8:9|)) (* 3 |v3:14|))))
(let (($x715 (or (<= ?x701 ?x113) (<= (+ (+ ?x709 (* ?x36 |v16:1|)) (* ?x86 |v8:9|)) ?x32))))
(let ((?x682 (+ (+ (+ (* ?x24 |v0:17|) (* ?x290 |v7:10|)) (* ?x117 |v0:17|)) (* ?x51 |v15:2|))))
(let ((?x671 (+ (+ (+ (* ?x71 |v13:4|) (* ?x163 |v13:4|)) (* ?x79 |v7:10|)) (* ?x120 |v3:14|))))
(let ((?x675 (+ (+ (+ ?x671 (* (- 20) |v7:10|)) (* ?x101 |v2:15|)) (* ?x479 |v0:17|))))
(let (($x689 (or (<= ?x675 ?x86) (<= (+ (+ (+ ?x682 (* ?x127 |v15:2|)) (* ?x117 |v14:3|)) ?x302) ?x101))))
(let (($x1050 (and (and (or (and $x689 $x715) $x769) (or $x817 (or $x837 $x855))) (or (or (and $x883 $x905) $x954) (and (or $x979 $x1002) (or $x1024 $x1046))))))
(let ((?x514 (* ?x55 |v7:10|)))
(let ((?x656 (+ (+ (+ (+ (* ?x51 |v8:9|) (* ?x86 |v7:10|)) (* ?x242 |v11:6|)) ?x514) (* ?x147 |v9:8|))))
(let ((?x641 (+ (+ (+ (* ?x10 |v15:2|) (* ?x127 |v1:16|)) (* ?x127 |v0:17|)) (* ?x28 |v15:2|))))
(let ((?x629 (+ (+ (+ (* ?x79 |v10:7|) (* ?x47 |v3:14|)) (* ?x79 |v6:11|)) (* ?x147 |v17:0|))))
(let (($x648 (and (<= (+ (+ (+ ?x629 (* ?x117 |v10:7|)) ?x280) ?x633) ?x220) (<= (+ (+ (+ ?x641 (* ?x10 |v6:11|)) (* ?x71 |v6:11|)) ?x645) ?x93))))
(let ((?x166 (* ?x79 |v5:12|)))
(let ((?x461 (* ?x176 |v12:5|)))
(let ((?x618 (+ (+ (+ (+ (* ?x68 |v5:12|) (* ?x113 |v4:13|)) (* ?x192 |v15:2|)) ?x461) (* ?x127 |v12:5|))))
(let ((?x604 (+ (+ (+ (* ?x137 |v4:13|) (* ?x170 |v11:6|)) (* 3 |v17:0|)) (* ?x220 |v17:0|))))
(let (($x611 (<= (+ (+ (+ ?x604 (* ?x132 |v16:1|)) (* ?x68 |v16:1|)) (* ?x59 |v16:1|)) ?x170)))
(let (($x661 (and (or (or $x611 (<= (+ (+ ?x618 (* ?x59 |v2:15|)) ?x166) ?x479)) $x648) (<= (+ (+ ?x656 ?x262) (* ?x19 |v6:11|)) ?x71))))
(let ((?x273 (* ?x68 |v5:12|)))
(let ((?x591 (+ (+ (+ (+ (* ?x220 |v9:8|) ?x586) (* ?x127 |v0:17|)) ?x362) (* ?x10 |v1:16|))))
(let ((?x580 (+ (+ (+ (+ (* ?x198 |v17:0|) ?x574) (* ?x176 |v9:8|)) (* ?x101 |v5:12|)) |v1:16|)))
(let (($x596 (or (<= (+ (+ ?x580 (* ?x79 |v10:7|)) |v16:1|) ?x101) (<= (+ (+ ?x591 ?x273) (* ?x137 |v0:17|)) ?x59))))
(let ((?x567 (+ (+ (+ (+ (* ?x120 |v5:12|) ?x181) (* ?x120 |v5:12|)) (* ?x137 |v16:1|)) (* ?x59 |v17:0|))))
(let ((?x556 (+ (+ (+ (* ?x71 |v6:11|) (* ?x216 |v13:4|)) (* ?x55 |v9:8|)) (* ?x113 |v1:16|))))
(let (($x572 (and (<= (+ (+ (+ ?x556 (* ?x170 |v9:8|)) ?x474) ?x235) ?x14) (<= (+ (+ ?x567 (* ?x101 |v4:13|)) (* 3 |v5:12|)) ?x24))))
(let ((?x544 (+ (+ (+ (+ |v8:9| (* ?x19 |v4:13|)) (* ?x24 |v3:14|)) (* ?x55 |v0:17|)) (* ?x93 |v2:15|))))
(let ((?x533 (+ (+ (+ (+ |v3:14| (* ?x36 |v9:8|)) (* ?x93 |v10:7|)) (* ?x213 |v14:3|)) (* ?x198 |v8:9|))))
(let (($x549 (or (<= (+ (+ ?x533 (* ?x137 |v2:15|)) (* ?x71 |v9:8|)) ?x137) (<= (+ (+ ?x544 (* ?x101 |v17:0|)) (* ?x10 |v12:5|)) ?x113))))
(let ((?x522 (+ (+ (+ (+ (+ |v13:4| ?x514) (* ?x113 |v8:9|)) (* ?x68 |v11:6|)) ?x33) ?x521)))
(let ((?x506 (+ (+ (+ (* (- 20) |v9:8|) (* ?x157 |v13:4|)) (* ?x10 |v0:17|)) (* ?x113 |v5:12|))))
(let ((?x512 (+ (+ (+ ?x506 (* 3 |v2:15|)) (* ?x55 |v6:11|)) (* ?x71 |v3:14|))))
(let (($x598 (or (or (and (<= ?x512 ?x113) (<= (+ ?x522 ?x514) ?x198)) $x549) (and $x572 $x596))))
(let ((?x80 (* ?x79 |v3:14|)))
(let ((?x493 (+ (+ (+ (* ?x163 |v12:5|) (* ?x220 |v17:0|)) (* ?x120 |v11:6|)) (* ?x93 |v11:6|))))
(let ((?x473 (* ?x137 |v7:10|)))
(let ((?x483 (+ (+ (+ (+ (+ ?x473 ?x474) (* ?x192 |v16:1|)) (* ?x479 |v0:17|)) ?x473) (* ?x163 |v1:16|))))
(let ((?x468 (+ (+ (+ (+ (* ?x157 |v9:8|) ?x461) (* ?x55 |v14:3|)) (* ?x14 |v2:15|)) ?x467)))
(let (($x486 (or (<= (+ (+ ?x468 (* ?x51 |v15:2|)) ?x247) ?x28) (<= (+ ?x483 ?x314) ?x147))))
(let ((?x456 (+ (+ (+ (+ (+ (* ?x107 |v8:9|) |v15:2|) ?x449) ?x451) (* ?x101 |v17:0|)) (* ?x24 |v14:3|))))
(let (($x499 (and (or (<= (+ ?x456 ?x457) ?x220) $x486) (<= (+ (+ (+ ?x493 (* ?x147 |v12:5|)) (* ?x32 |v12:5|)) ?x80) ?x28))))
(let ((?x440 (+ (+ (+ (+ (* ?x220 |v11:6|) ?x434) (* ?x132 |v8:9|)) (* ?x24 |v9:8|)) (* ?x163 |v15:2|))))
(let ((?x76 (* ?x47 |v0:17|)))
(let ((?x52 (* ?x51 |v3:14|)))
(let ((?x429 (+ (+ (+ (+ (* ?x36 |v2:15|) ?x184) ?x108) (* ?x132 |v12:5|)) (* ?x55 |v1:16|))))
(let (($x444 (and (<= (+ (+ ?x429 ?x52) ?x76) ?x93) (<= (+ (+ ?x440 ?x201) (* ?x113 |v15:2|)) ?x170))))
(let ((?x420 (* ?x170 |v14:3|)))
(let ((?x253 (* ?x242 |v12:5|)))
(let ((?x418 (+ (+ (+ (+ ?x349 (* ?x117 |v12:5|)) (* ?x101 |v10:7|)) (* ?x150 |v16:1|)) (* ?x157 |v7:10|))))
(let ((?x243 (* ?x242 |v16:1|)))
(let ((?x407 (+ (+ (+ (+ (* ?x86 |v2:15|) (* ?x32 |v9:8|)) |v9:8|) (* ?x36 |v5:12|)) (* ?x24 |v13:4|))))
(let (($x423 (or (<= (+ (+ ?x407 (* ?x220 |v7:10|)) ?x243) ?x28) (<= (+ (+ ?x418 ?x253) ?x420) ?x32))))
(let ((?x393 (+ (+ (+ (+ ?x223 ?x386) (* ?x213 |v1:16|)) (* ?x213 |v13:4|)) (* ?x14 |v13:4|))))
(let ((?x380 (+ (+ (+ (+ (* ?x28 |v1:16|) (* ?x36 |v1:16|)) ?x52) (* ?x290 |v9:8|)) (* ?x147 |v12:5|))))
(let (($x399 (and (<= (+ (+ ?x380 (* ?x220 |v5:12|)) (* ?x120 |v17:0|)) ?x117) (<= (+ (+ ?x393 ?x394) (* ?x213 |v12:5|)) ?x32))))
(let ((?x368 (+ (+ (+ (+ (* ?x24 |v8:9|) ?x362) (* ?x137 |v15:2|)) ?x11) (* ?x157 |v3:14|))))
(let (($x446 (or (and (<= (+ (+ ?x368 (* ?x47 |v4:13|)) (* ?x198 |v15:2|)) ?x120) $x399) (or $x423 $x444))))
(let ((?x352 (+ (+ (+ (+ ?x33 (* ?x242 |v7:10|)) (* ?x113 |v15:2|)) ?x349) (* ?x32 |v9:8|))))
(let ((?x143 (* ?x51 |v2:15|)))
(let ((?x336 (+ (+ (+ (+ (* ?x51 |v8:9|) ?x29) (* ?x117 |v12:5|)) (* ?x59 |v17:0|)) ?x143)))
(let ((?x324 (+ (+ (+ (+ ?x302 (* ?x213 |v9:8|)) ?x80) (* (- 20) |v5:12|)) ?x323)))
(let (($x342 (and (<= (+ (+ ?x324 (* ?x47 |v15:2|)) (* ?x51 |v12:5|)) ?x198) (<= (+ (+ ?x336 ?x337) (* ?x127 |v10:7|)) ?x51))))
(let ((?x310 (+ (+ (+ (* ?x163 |v4:13|) (* ?x59 |v7:10|)) (* ?x93 |v7:10|)) (* ?x198 |v10:7|))))
(let ((?x297 (+ (+ (+ (* ?x290 |v6:11|) (* ?x147 |v3:14|)) ?x294) (* 3 |v0:17|))))
(let (($x317 (and (<= (+ (+ (+ ?x297 (* ?x101 |v2:15|)) ?x300) ?x302) ?x213) (<= (+ (+ (+ ?x310 ?x74) (* 3 |v10:7|)) ?x314) ?x28))))
(let (($x358 (and (and $x317 $x342) (<= (+ (+ ?x352 |v1:16|) (* ?x32 |v14:3|)) 1))))
(let ((?x259 (* ?x24 |v1:16|)))
(let ((?x283 (+ (+ (+ (+ (+ ?x273 (* ?x127 |v8:9|)) ?x276) (* ?x220 |v12:5|)) ?x280) (* ?x113 |v9:8|))))
(let ((?x268 (* ?x120 |v11:6|)))
(let ((?x267 (+ (+ (+ (+ ?x259 (* ?x47 |v4:13|)) ?x262) (* ?x198 |v12:5|)) (* ?x137 |v10:7|))))
(let (($x286 (or (<= (+ (+ ?x267 ?x268) (* ?x147 |v1:16|)) ?x163) (<= (+ ?x283 ?x259) ?x150))))
(let ((?x252 (+ (+ (+ (+ (* ?x163 |v9:8|) ?x247) ?x11) (* ?x19 |v4:13|)) (* ?x19 |v15:2|))))
(let ((?x240 (+ (+ (+ (+ (+ ?x181 |v8:9|) (* ?x28 |v10:7|)) ?x235) (* ?x36 |v12:5|)) (* ?x176 |v15:2|))))
(let (($x258 (or (<= (+ ?x240 ?x243) ?x79) (<= (+ (+ ?x252 ?x253) (* ?x36 |v13:4|)) ?x79))))
(let ((?x226 (+ (+ (+ (+ (* ?x213 |v16:1|) (* ?x216 |v13:4|)) ?x221) ?x223) (* ?x120 |v0:17|))))
(let (($x288 (and (<= (+ (+ ?x226 (* ?x47 |v1:16|)) (* ?x220 |v13:4|)) ?x170) (and $x258 $x286))))
(let ((?x204 (+ (+ (+ (+ (+ (* ?x24 |v17:0|) ?x193) (* ?x101 |v4:13|)) ?x199) ?x201) (* ?x47 |v8:9|))))
(let ((?x180 (+ (+ (+ (* ?x170 |v1:16|) (* ?x163 |v11:6|)) (* ?x176 |v16:1|)) (* ?x132 |v8:9|))))
(let ((?x161 (+ (+ (+ (+ (* ?x150 |v6:11|) ?x152) (* ?x107 |v7:10|)) (* ?x157 |v10:7|)) (* ?x10 |v8:9|))))
(let (($x189 (or (<= (+ (+ ?x161 (* ?x163 |v1:16|)) ?x166) ?x51) (<= (+ (+ (+ ?x180 ?x181) ?x184) (* ?x93 |v8:9|)) ?x10))))
(let ((?x142 (+ (+ (+ (+ (* ?x127 |v5:12|) (* ?x14 |v1:16|)) ?x133) (* ?x137 |v8:9|)) (* (- 20) |v14:3|))))
(let (($x210 (and (<= (+ (+ ?x142 ?x143) (* ?x24 |v2:15|)) ?x147) (or $x189 (<= (+ ?x204 (* ?x93 |v12:5|)) ?x51)))))
(let ((?x109 (+ (+ (+ (* (- 20) |v9:8|) (* ?x101 |v1:16|)) (* ?x10 |v1:16|)) ?x108)))
(let ((?x95 (+ (+ (+ (+ (+ (+ ?x74 ?x76) ?x80) ?x82) ?x87) (* ?x24 |v3:14|)) (* ?x93 |v7:10|))))
(let (($x122 (and (<= ?x95 ?x55) (<= (+ (+ (+ ?x109 (* ?x93 |v9:8|)) ?x114) (* ?x117 |v9:8|)) ?x120))))
(let ((?x61 (+ (+ (+ (+ (* (- 20) |v3:14|) ?x48) ?x52) (* ?x55 |v16:1|)) ?x60)))
(let (($x123 (or (<= (+ (+ ?x61 (* 3 |v15:2|)) (* ?x68 |v1:16|)) ?x71) $x122)))
(let ((?x30 (+ (+ (+ (+ ?x11 (* ?x14 |v6:11|)) (* ?x19 |v15:2|)) (* ?x24 |v16:1|)) ?x29)))
(let (($x360 (and (or (and (<= (+ (+ ?x30 ?x33) (* ?x36 |v2:15|)) ?x28) $x123) $x210) (or $x288 $x358))))
(or (or $x360 (and (or $x446 $x499) (and $x598 $x661))) (and $x1050 (and (or $x1141 $x1226) $x1385))))))))))))))))))))))))))))))))))))))))))))))))))))))))))))))))))))))))))))))))))))))))))))))))))))))))))))))))))))))))))))))))))))))))))))))))))))))))))))))))))))))))))))))))))))))))))))))))))))))))))))))))))))))))))))))))))))))))))))))))))))))))))))))))))))))))))))))))))))))))))))))))))))))))))
)
)
)
)
)
)
)
)
)
)
)
)
)
)
)
)
)
)
(check-sat)
(exit)

